
******************************************************************************
This program contains Ipopt, a library for large-scale nonlinear optimization.
 Ipopt is released as open source code under the Eclipse Public License (EPL).
         For more information visit http://projects.coin-or.org/Ipopt

This version of Ipopt was compiled from source code available at
    https://github.com/IDAES/Ipopt as part of the Institute for the Design of
    Advanced Energy Systems Process Systems Engineering Framework (IDAES PSE
    Framework) Copyright (c) 2018-2019. See https://github.com/IDAES/idaes-pse.

This version of Ipopt was compiled using HSL, a collection of Fortran codes
    for large-scale scientific computation.  All technical papers, sales and
    publicity material resulting from use of the HSL codes within IPOPT must
    contain the following acknowledgement:
        HSL, a collection of Fortran codes for large-scale scientific
        computation. See http://www.hsl.rl.ac.uk.
******************************************************************************

This is Ipopt version 3.13.2, running with linear solver ma27.

Number of nonzeros in equality constraint Jacobian...:     1538
Number of nonzeros in inequality constraint Jacobian.:        0
Number of nonzeros in Lagrangian Hessian.............:     2356

Total number of variables............................:      558
                     variables with only lower bounds:      124
                variables with lower and upper bounds:      372
                     variables with only upper bounds:        0
Total number of equality constraints.................:      552
Total number of inequality constraints...............:        0
        inequality constraints with only lower bounds:        0
   inequality constraints with lower and upper bounds:        0
        inequality constraints with only upper bounds:        0

iter    objective    inf_pr   inf_du lg(mu)  ||d||  lg(rg) alpha_du alpha_pr  ls
   0  0.0000000e+00 3.14e+00 6.41e-13  -1.0 0.00e+00    -  0.00e+00 0.00e+00   0
   1  2.0550649e+02 2.84e+00 2.84e+05  -1.0 1.89e+06    -  1.00e-01 9.53e-02h  1
   2  1.7927215e+02 2.76e+00 5.64e+05  -1.0 2.58e+06    -  1.55e-02 2.91e-02f  2
   3  1.7203322e+02 2.75e+00 5.63e+05  -1.0 2.54e+06    -  1.16e-01 2.72e-03h  1
   4  1.5644238e+02 2.71e+00 5.55e+05  -1.0 1.93e+06    -  1.23e-01 1.55e-02F  1
   5  1.4956161e+03 2.25e+00 3.31e+06  -1.0 2.00e+06    -  1.77e-01 1.70e-01h  2
   6  1.4977320e+03 2.25e+00 3.31e+06  -1.0 3.42e+06    -  1.81e-02 2.08e-05H  1
   7  1.5025860e+03 2.25e+00 3.30e+06  -1.0 4.76e+07    -  6.00e-02 2.94e-04h  6
   8  1.5053843e+03 2.24e+00 3.30e+06  -1.0 1.16e+06  -4.0 2.76e-05 2.33e-03f  7
   9  1.8919138e+03 1.76e+00 1.47e+07  -1.0 7.14e+05  -4.5 1.07e-05 2.17e-01h  1
iter    objective    inf_pr   inf_du lg(mu)  ||d||  lg(rg) alpha_du alpha_pr  ls
  10  1.8961846e+03 1.75e+00 1.47e+07  -1.0 7.57e+05  -3.1 1.79e-01 1.60e-03h  1
  11  1.8963957e+03 1.75e+00 1.47e+07  -1.0 8.18e+05  -3.6 3.12e-01 7.37e-05h  1
  12  2.6108696e+03 2.19e+00 2.10e+07  -1.0 8.11e+05  -4.1 2.83e-01 1.78e-01h  3
  13  5.3573631e+03 5.83e+00 1.47e+08  -1.0 3.14e+05  -3.7 6.53e-01 9.90e-01h  1
  14  5.4098107e+03 5.71e+00 1.44e+08  -1.0 4.51e+05  -3.3 7.60e-01 1.91e-02h  1
  15  8.4523453e+03 5.73e-02 5.93e+08  -1.0 3.19e+05  -2.8 7.70e-01 9.90e-01h  1
  16  8.4105450e+03 5.63e-02 1.45e+08  -1.0 8.86e+04  -3.3 9.06e-01 9.90e-01f  1
  17  8.2814405e+03 5.91e-04 1.07e+07  -1.0 1.63e+04  -3.8 5.08e-01 9.90e-01f  1
  18  8.2780299e+03 5.91e-06 4.31e+08  -1.0 3.95e+02  -4.3 7.96e-01 9.90e-01f  1
  19  8.2810880e+03 3.09e-06 1.10e+11  -1.0 1.60e+03  -4.7 9.90e-01 4.95e-01f  2
iter    objective    inf_pr   inf_du lg(mu)  ||d||  lg(rg) alpha_du alpha_pr  ls
  20  5.7208907e+03 1.27e-01 3.03e+11  -1.0 7.68e+06    -  5.59e-01 9.66e-02f  2
  21  5.7188985e+03 1.27e-01 7.83e+11  -1.0 2.90e+05  -5.2 9.91e-01 3.80e-03h  1
  22  3.9947995e+03 3.53e+00 7.26e+11  -1.0 3.15e+07    -  2.02e-02 5.23e-02f  1
  23  3.2294050e+03 1.02e+01 1.99e+11  -1.0 2.17e+05  -5.7 5.90e-01 9.90e-01f  1
In iteration 23, 31 Slacks too small, adjusting variable bounds
  24  3.0338699e+03 2.35e+00 4.68e+13  -1.0 5.07e+05  -6.2 8.43e-02 9.90e-01f  1
  25  4.7110563e+03 8.99e-01 4.33e+12  -1.0 5.31e+05  -5.7 4.42e-03 1.00e+00h  1
  26  5.1057110e+03 7.19e-01 2.45e+12  -1.0 3.17e+05  -6.2 4.33e-01 1.94e-01h  1
  27  5.1109432e+03 7.15e-01 4.13e+10  -1.0 1.23e+05  -5.8 9.83e-01 5.17e-03h  1
  28  5.4695786e+03 9.65e-02 3.93e+05  -1.0 2.64e+05  -6.3 1.00e+00 1.00e+00h  1
  29  5.1564772e+03 4.38e-03 9.36e+11  -2.5 3.43e+04  -6.7 2.39e-01 1.00e+00f  1
iter    objective    inf_pr   inf_du lg(mu)  ||d||  lg(rg) alpha_du alpha_pr  ls
  30  2.9553985e+03 2.45e+00 3.70e+11  -2.5 1.01e+06    -  6.05e-01 1.00e+00f  1
  31  2.0906358e+03 1.61e+00 2.93e+11  -2.5 4.11e+05  -7.2 2.07e-01 3.45e-01f  1
  32  2.0891445e+03 1.60e+00 6.11e+10  -2.5 2.23e+05  -6.8 7.92e-01 2.14e-03f  1
  33  1.8622805e+03 3.71e-02 2.23e+10  -2.5 1.20e+05  -7.3 6.34e-01 1.00e+00f  1
  34  1.6511602e+03 6.73e-03 2.19e+10  -2.5 6.10e+04  -7.7 1.93e-02 1.00e+00f  1
  35  6.5137347e+02 2.61e+00 2.07e+10  -2.5 2.89e+05    -  5.64e-02 1.00e+00f  1
  36  2.4129273e+02 3.13e+00 1.33e+10  -2.5 4.36e+05    -  3.58e-01 5.00e-01f  2
  37  3.2050076e+02 3.00e+00 6.36e+09  -2.5 1.80e+06  -8.2 5.20e-01 4.87e-02h  4
  38  9.2781716e+02 1.85e+00 9.18e+03  -2.5 2.59e+05  -7.8 1.00e+00 5.00e-01h  2
  39  3.0239107e+03 6.52e-01 7.82e+03  -2.5 4.75e+05  -7.4 1.00e+00 1.00e+00h  1
iter    objective    inf_pr   inf_du lg(mu)  ||d||  lg(rg) alpha_du alpha_pr  ls
  40  2.4015825e+03 1.70e-01 5.67e+04  -2.5 1.62e+05  -6.9 1.86e-01 1.00e+00f  1
  41  1.3828868e+03 3.10e-01 2.28e+04  -2.5 1.24e+05  -7.4 5.49e-03 1.00e+00f  1
  42  1.1633961e+03 3.76e-01 3.85e+03  -2.5 2.56e+04  -7.0 1.29e-01 1.00e+00f  1
  43  1.0631057e+03 8.03e-01 3.76e+03  -2.5 6.47e+04  -7.5 4.09e-01 2.67e-01f  1
  44  7.5354299e+02 3.88e-01 1.04e+03  -2.5 7.58e+04  -8.0 6.74e-03 1.00e+00f  1
  45  6.2330191e+02 9.80e-01 5.18e+02  -2.5 1.70e+05    -  1.00e+00 2.13e-01f  1
  46  5.8850823e+02 8.44e-01 4.42e+02  -2.5 1.20e+05    -  4.03e-03 1.41e-01f  1
  47  5.8838707e+02 8.43e-01 4.42e+02  -2.5 8.80e+04    -  8.23e-01 7.71e-04f  1
  48  5.4814911e+02 3.69e-01 7.71e+02  -2.5 7.94e+04    -  3.01e-01 1.00e+00f  1
  49  5.2161588e+02 6.73e-01 9.17e+01  -2.5 7.62e+04    -  4.64e-01 1.19e-01f  1
iter    objective    inf_pr   inf_du lg(mu)  ||d||  lg(rg) alpha_du alpha_pr  ls
  50  5.6912382e+02 3.84e-01 3.02e+03  -2.5 4.71e+04    -  4.76e-03 1.00e+00h  1
  51  5.4239735e+02 3.46e-01 2.73e+03  -2.5 9.32e+04    -  1.00e+00 9.50e-02f  1
  52  5.4177030e+02 3.45e-01 2.72e+03  -2.5 3.14e+05    -  9.59e-01 1.24e-03f  1
  53  4.9901024e+02 1.84e+00 5.67e+03  -2.5 4.17e+05    -  4.75e-02 9.40e-02f  4
  54  7.1853855e+02 3.64e-01 3.19e+03  -2.5 1.57e+05    -  2.72e-01 1.00e+00h  1
  55  4.5029523e+02 1.72e+00 1.11e+04  -2.5 3.95e+05    -  5.51e-01 2.50e-01f  3
  56  4.4991177e+02 1.72e+00 1.10e+04  -2.5 2.28e+06    -  3.83e-02 2.36e-03f  7
  57  5.1963716e+02 1.67e+00 1.07e+04  -2.5 2.54e+06    -  1.79e-04 3.17e-02h  4
  58  5.1307141e+02 1.68e+00 1.07e+04  -2.5 1.82e+06  -7.5 7.77e-03 6.30e-05H  1
  59  6.0075675e+02 3.38e-01 2.48e+03  -2.5 7.28e+04  -8.0 3.31e-04 1.00e+00h  1
iter    objective    inf_pr   inf_du lg(mu)  ||d||  lg(rg) alpha_du alpha_pr  ls
  60  5.6013798e+02 3.36e-01 2.46e+03  -2.5 1.32e+07    -  2.10e-02 1.39e-03f  1
  61  5.6009065e+02 3.36e-01 2.46e+03  -2.5 1.16e+07  -8.5 3.27e-02 3.36e-06f  1
  62  4.2382048e+02 2.06e+00 2.38e+04  -2.5 6.22e+05    -  1.00e+00 2.19e-01f  3
  63  4.4037411e+02 1.09e+00 1.49e+04  -2.5 2.90e+05  -8.1 2.44e-01 5.00e-01h  2
  64  4.3910284e+02 1.08e+00 1.49e+04  -2.5 5.47e+05    -  3.62e-01 1.67e-03H  1
  65  4.9093099e+02 9.61e-01 1.32e+04  -2.5 4.79e+05    -  4.02e-01 1.25e-01h  4
  66  7.7833434e+02 3.53e-01 8.72e+03  -2.5 9.65e+04  -8.5 2.15e-01 1.00e+00h  1
  67  7.7413944e+02 3.52e-01 8.71e+03  -2.5 5.36e+05    -  2.90e-02 1.88e-03f  1
  68  4.1283747e+02 2.19e+00 1.55e+04  -2.5 6.27e+05    -  1.95e-03 2.44e-01f  3
  69  4.2219309e+02 2.16e+00 1.52e+04  -2.5 9.64e+04  -7.2 7.21e-03 1.56e-02h  7
iter    objective    inf_pr   inf_du lg(mu)  ||d||  lg(rg) alpha_du alpha_pr  ls
  70  4.2364638e+02 2.15e+00 1.52e+04  -2.5 7.99e+04  -6.8 3.20e-03 3.91e-03h  9
  71  4.2395017e+02 2.15e+00 1.52e+04  -2.5 8.46e+05  -7.3 9.00e-04 1.21e-04h 12
  72  4.2414521e+02 2.15e+00 1.52e+04  -2.5 8.65e+04  -6.8 9.06e-02 4.88e-04h 12
  73  4.2249837e+02 2.15e+00 1.51e+04  -2.5 1.81e+06  -7.3 1.36e-01 5.36e-04H  1
  74  1.3297650e+03 3.51e-01 9.24e+03  -2.5 6.79e+04  -6.9 1.05e-01 1.00e+00H  1
  75  1.2454620e+03 1.60e-02 4.77e+03  -2.5 2.80e+04  -7.4 1.58e-01 1.00e+00f  1
  76  6.2792766e+02 4.61e-01 3.33e+10  -3.8 2.07e+05    -  1.83e-02 1.00e+00f  1
  77  6.0305120e+02 4.39e-01 2.01e+10  -3.8 1.01e+05  -7.8 3.97e-01 4.99e-02f  1
  78  8.0764670e+02 9.46e-02 2.01e+10  -3.8 4.92e+04    -  4.77e-04 1.00e+00h  1
  79  8.1338828e+02 1.05e-02 1.59e+10  -3.8 2.27e+04    -  2.07e-01 1.00e+00h  1
iter    objective    inf_pr   inf_du lg(mu)  ||d||  lg(rg) alpha_du alpha_pr  ls
  80  8.2493080e+02 1.93e-03 1.89e+02  -3.8 3.07e+03    -  1.00e+00 1.00e+00h  1
  81  8.2679710e+02 1.01e-04 7.88e+00  -3.8 3.61e+02    -  1.00e+00 1.00e+00h  1
  82  8.2690943e+02 2.05e-07 1.53e-02  -5.7 2.02e+01    -  1.00e+00 1.00e+00h  1
  83  8.2690966e+02 3.22e-12 6.81e-08  -8.6 7.98e-02    -  1.00e+00 1.00e+00h  1

Number of Iterations....: 83

                                   (scaled)                 (unscaled)
Objective...............:   8.2690966002983771e+02    8.2690966002983771e+02
Dual infeasibility......:   6.8106854700261105e-08    6.8106854700261105e-08
Constraint violation....:   3.2249758419311547e-12    3.2249758419311547e-12
Complementarity.........:   2.5160653630184077e-09    2.5160653630184077e-09
Overall NLP error.......:   4.3880324704147147e-09    6.8106854700261105e-08


Number of objective function evaluations             = 197
Number of objective gradient evaluations             = 84
Number of equality constraint evaluations            = 197
Number of inequality constraint evaluations          = 0
Number of equality constraint Jacobian evaluations   = 84
Number of inequality constraint Jacobian evaluations = 0
Number of Lagrangian Hessian evaluations             = 83
Total CPU secs in IPOPT (w/o function evaluations)   =      0.169
Total CPU secs in NLP function evaluations           =      2.960

EXIT: Optimal Solution Found.
